c Instancia generada aleatoriamente
p edge 60 697 20
v 8 6 29 33 34 35 49 57 60
v 4 15 18 27 56
v 4 5 16 24 36
v 4 1 31 32 59
v 3 4 25 39
v 2 43 54
v 2 12 50
v 2 10 40
v 1 55
v 3 2 8 58
v 2 28 48
v 2 20 30
v 3 7 37 38
v 3 17 21 52
v 4 11 13 44 51
v 2 9 26
v 2 3 47
v 2 45 53
v 4 19 22 42 46
v 3 14 23 41
e 1 3
e 1 7
e 1 8
e 1 10
e 1 14
e 1 20
e 1 22
e 1 23
e 1 24
e 1 26
e 1 28
e 1 29
e 1 31
e 1 35
e 1 40
e 1 46
e 1 47
e 1 50
e 1 53
e 1 54
e 1 57
e 1 58
e 1 59
e 2 3
e 2 4
e 2 8
e 2 10
e 2 15
e 2 20
e 2 23
e 2 25
e 2 29
e 2 30
e 2 32
e 2 40
e 2 45
e 2 48
e 2 53
e 2 55
e 2 57
e 2 58
e 2 59
e 3 5
e 3 7
e 3 8
e 3 14
e 3 16
e 3 17
e 3 18
e 3 20
e 3 21
e 3 23
e 3 25
e 3 27
e 3 29
e 3 31
e 3 32
e 3 39
e 3 40
e 3 42
e 3 43
e 3 44
e 3 49
e 3 50
e 3 52
e 3 54
e 3 56
e 3 58
e 3 59
e 4 6
e 4 7
e 4 8
e 4 11
e 4 16
e 4 19
e 4 25
e 4 37
e 4 40
e 4 42
e 4 44
e 4 46
e 4 47
e 4 48
e 4 49
e 4 51
e 4 55
e 4 58
e 5 8
e 5 11
e 5 12
e 5 15
e 5 19
e 5 21
e 5 23
e 5 28
e 5 29
e 5 33
e 5 35
e 5 39
e 5 41
e 5 42
e 5 45
e 5 46
e 5 47
e 5 51
e 5 53
e 5 54
e 5 55
e 5 57
e 5 59
e 5 60
e 6 12
e 6 14
e 6 19
e 6 22
e 6 28
e 6 29
e 6 35
e 6 36
e 6 39
e 6 44
e 6 45
e 6 47
e 6 48
e 6 49
e 6 50
e 6 57
e 6 58
e 7 8
e 7 9
e 7 10
e 7 11
e 7 13
e 7 14
e 7 15
e 7 16
e 7 20
e 7 24
e 7 28
e 7 32
e 7 33
e 7 34
e 7 38
e 7 40
e 7 42
e 7 45
e 7 46
e 7 49
e 7 53
e 7 56
e 7 57
e 7 58
e 7 59
e 8 10
e 8 11
e 8 12
e 8 17
e 8 22
e 8 23
e 8 26
e 8 31
e 8 33
e 8 34
e 8 36
e 8 38
e 8 40
e 8 41
e 8 43
e 8 46
e 8 47
e 8 51
e 8 52
e 8 53
e 8 55
e 8 59
e 9 10
e 9 12
e 9 13
e 9 15
e 9 17
e 9 18
e 9 19
e 9 20
e 9 22
e 9 29
e 9 31
e 9 38
e 9 42
e 9 43
e 9 44
e 9 46
e 9 50
e 9 51
e 9 52
e 9 53
e 9 56
e 9 57
e 10 11
e 10 13
e 10 14
e 10 19
e 10 20
e 10 26
e 10 39
e 10 46
e 10 49
e 10 59
e 11 12
e 11 17
e 11 20
e 11 22
e 11 25
e 11 27
e 11 29
e 11 37
e 11 38
e 11 41
e 11 42
e 11 53
e 11 55
e 12 13
e 12 18
e 12 21
e 12 26
e 12 28
e 12 31
e 12 34
e 12 35
e 12 36
e 12 41
e 12 44
e 12 45
e 12 46
e 12 47
e 12 53
e 12 59
e 12 60
e 13 15
e 13 19
e 13 21
e 13 26
e 13 27
e 13 28
e 13 29
e 13 31
e 13 32
e 13 33
e 13 35
e 13 36
e 13 37
e 13 41
e 13 43
e 13 44
e 13 47
e 13 48
e 13 51
e 13 52
e 13 56
e 13 58
e 13 60
e 14 17
e 14 20
e 14 21
e 14 27
e 14 29
e 14 31
e 14 33
e 14 34
e 14 35
e 14 36
e 14 37
e 14 39
e 14 42
e 14 45
e 14 47
e 14 55
e 14 56
e 14 59
e 15 16
e 15 17
e 15 20
e 15 24
e 15 26
e 15 27
e 15 29
e 15 31
e 15 35
e 15 39
e 15 40
e 15 41
e 15 49
e 15 50
e 15 51
e 15 52
e 15 53
e 15 55
e 15 60
e 16 17
e 16 20
e 16 21
e 16 22
e 16 25
e 16 28
e 16 32
e 16 37
e 16 40
e 16 41
e 16 42
e 16 44
e 16 46
e 16 47
e 16 50
e 16 53
e 16 58
e 16 60
e 17 18
e 17 19
e 17 20
e 17 22
e 17 25
e 17 28
e 17 31
e 17 32
e 17 34
e 17 35
e 17 37
e 17 38
e 17 40
e 17 42
e 17 44
e 17 50
e 17 51
e 17 53
e 17 55
e 17 56
e 18 23
e 18 25
e 18 26
e 18 27
e 18 29
e 18 41
e 18 44
e 18 45
e 18 46
e 18 50
e 18 52
e 18 53
e 18 55
e 18 57
e 18 58
e 18 59
e 19 21
e 19 25
e 19 26
e 19 30
e 19 36
e 19 41
e 19 42
e 19 44
e 19 45
e 19 46
e 19 48
e 19 50
e 19 51
e 19 54
e 19 57
e 19 58
e 19 59
e 19 60
e 20 22
e 20 29
e 20 30
e 20 31
e 20 33
e 20 34
e 20 38
e 20 40
e 20 41
e 20 42
e 20 43
e 20 45
e 20 49
e 20 50
e 20 53
e 20 55
e 21 25
e 21 27
e 21 29
e 21 30
e 21 37
e 21 38
e 21 39
e 21 42
e 21 44
e 21 45
e 21 48
e 21 49
e 21 50
e 21 55
e 21 56
e 21 57
e 22 24
e 22 25
e 22 27
e 22 30
e 22 32
e 22 34
e 22 35
e 22 41
e 22 42
e 22 43
e 22 46
e 22 48
e 22 49
e 22 52
e 22 59
e 23 25
e 23 28
e 23 29
e 23 32
e 23 35
e 23 38
e 23 42
e 23 43
e 23 44
e 23 46
e 23 48
e 23 50
e 23 52
e 23 59
e 24 25
e 24 27
e 24 28
e 24 30
e 24 31
e 24 33
e 24 34
e 24 37
e 24 39
e 24 41
e 24 45
e 24 47
e 24 49
e 24 50
e 24 57
e 24 59
e 24 60
e 25 26
e 25 27
e 25 30
e 25 33
e 25 36
e 25 42
e 25 47
e 25 48
e 25 49
e 25 51
e 25 52
e 25 53
e 25 54
e 25 56
e 25 57
e 25 59
e 25 60
e 26 27
e 26 31
e 26 32
e 26 36
e 26 40
e 26 45
e 26 46
e 26 47
e 26 50
e 26 59
e 27 28
e 27 34
e 27 36
e 27 38
e 27 44
e 27 46
e 27 48
e 27 53
e 27 54
e 27 58
e 27 59
e 27 60
e 28 29
e 28 30
e 28 33
e 28 39
e 28 41
e 28 42
e 28 45
e 28 46
e 28 48
e 28 50
e 28 56
e 28 57
e 28 58
e 28 59
e 28 60
e 29 30
e 29 31
e 29 36
e 29 38
e 29 40
e 29 44
e 29 46
e 29 47
e 29 48
e 29 49
e 29 51
e 29 52
e 29 53
e 29 56
e 29 58
e 30 35
e 30 36
e 30 37
e 30 39
e 30 43
e 30 45
e 30 46
e 30 48
e 30 50
e 30 53
e 30 54
e 30 55
e 30 56
e 30 57
e 30 58
e 30 59
e 31 35
e 31 38
e 31 43
e 31 46
e 31 48
e 31 49
e 31 50
e 31 52
e 31 54
e 31 55
e 31 56
e 31 58
e 31 59
e 32 34
e 32 36
e 32 38
e 32 41
e 32 43
e 32 44
e 32 50
e 32 57
e 33 34
e 33 36
e 33 38
e 33 39
e 33 42
e 33 44
e 33 46
e 33 51
e 33 53
e 33 57
e 34 36
e 34 38
e 34 39
e 34 48
e 34 51
e 34 52
e 34 54
e 34 55
e 35 39
e 35 40
e 35 42
e 35 51
e 35 52
e 35 53
e 35 54
e 35 55
e 35 56
e 35 58
e 36 38
e 36 40
e 36 42
e 36 44
e 36 45
e 36 47
e 36 49
e 36 50
e 36 53
e 36 55
e 36 58
e 37 41
e 37 42
e 37 43
e 37 47
e 37 49
e 37 50
e 37 53
e 37 58
e 38 39
e 38 43
e 38 44
e 38 48
e 38 49
e 38 54
e 38 57
e 38 58
e 39 41
e 39 44
e 39 45
e 39 46
e 39 49
e 39 51
e 39 52
e 39 54
e 39 58
e 39 59
e 40 43
e 40 44
e 40 47
e 40 50
e 40 52
e 40 55
e 41 44
e 41 46
e 41 47
e 41 48
e 41 49
e 41 50
e 41 51
e 41 53
e 41 56
e 41 59
e 41 60
e 42 47
e 42 48
e 42 53
e 42 55
e 42 56
e 42 59
e 43 45
e 43 46
e 43 47
e 43 48
e 43 49
e 43 50
e 43 52
e 43 57
e 44 46
e 44 49
e 44 50
e 44 51
e 44 53
e 45 47
e 45 50
e 45 55
e 45 58
e 46 47
e 46 48
e 46 51
e 46 53
e 46 54
e 46 55
e 46 58
e 46 59
e 46 60
e 47 49
e 47 52
e 47 54
e 47 57
e 48 49
e 48 55
e 48 57
e 48 58
e 48 59
e 48 60
e 49 52
e 49 54
e 49 55
e 49 58
e 50 54
e 50 56
e 50 57
e 50 59
e 51 52
e 51 59
e 51 60
e 52 53
e 52 55
e 52 56
e 52 57
e 52 58
e 53 56
e 53 57
e 54 56
e 54 60
